p cnf 86 688
-43 -40 -37 0
-43 -40 -3 0
-43 -6 -3 0
-42 -39 -36 0
-42 -39 -2 0
-42 -5 -2 0
-41 -38 -35 0
-41 -38 -1 0
-41 -4 -1 0
-40 -37 -34 0
-39 -36 -33 0
-38 -35 -32 0
-37 -34 -31 0
-36 -33 -30 0
-35 -32 -29 0
-34 -31 -28 0
-33 -30 -27 0
-32 -29 -26 0
-31 -28 -25 0
-30 -27 -24 0
-29 -26 -23 0
-28 -25 -22 0
-27 -24 -21 0
-26 -23 -20 0
-25 -22 -19 0
-24 -21 -18 0
-23 -20 -17 0
-22 -19 -16 0
-21 -18 -15 0
-20 -17 -14 0
-19 -16 -13 0
-18 -15 -12 0
-17 -14 -11 0
-16 -13 -10 0
-15 -12 -9 0
-14 -11 -8 0
-13 -10 -7 0
-12 -9 -6 0
-11 -8 -5 0
-10 -7 -4 0
-9 -6 -3 0
-8 -5 -2 0
-7 -4 -1 0
1 2 44 50 0
1 6 49 0
1 14 0
1 20 0
1 20 44 0
1 20 68 0
1 25 0
1 25 49 0
1 25 68 0
1 31 0
1 39 44 0
1 43 49 86 0
1 44 0
1 44 49 0
1 44 68 0
1 49 0
1 49 68 0
1 50 0
1 86 0
2 3 45 51 0
2 7 50 0
2 15 0
2 21 0
2 21 45 0
2 21 69 0
2 26 0
2 26 50 0
2 26 69 0
2 32 0
2 40 45 0
2 44 0
2 45 0
2 45 50 0
2 45 69 0
2 50 0
2 50 69 0
2 51 0
3 4 46 52 0
3 8 51 0
3 16 0
3 22 0
3 22 46 0
3 22 70 0
3 27 0
3 27 51 0
3 27 70 0
3 33 0
3 41 46 0
3 45 0
3 46 0
3 46 51 0
3 46 70 0
3 51 0
3 51 70 0
3 52 0
4 5 47 53 0
4 9 52 0
4 17 0
4 23 0
4 23 47 0
4 23 71 0
4 28 0
4 28 52 0
4 28 71 0
4 34 0
4 42 47 0
4 46 0
4 47 0
4 47 52 0
4 47 71 0
4 52 0
4 52 71 0
4 53 0
5 6 48 54 0
5 10 53 0
5 18 0
5 24 0
5 24 48 0
5 24 72 0
5 29 0
5 29 53 0
5 29 72 0
5 35 0
5 43 48 0
5 47 0
5 48 0
5 48 53 0
5 48 72 0
5 53 0
5 53 72 0
5 54 0
6 7 49 55 0
6 11 54 0
6 19 0
6 25 0
6 25 49 0
6 25 73 0
6 30 0
6 30 54 0
6 30 73 0
6 36 0
6 48 0
6 49 0
6 49 54 0
6 49 73 0
6 54 0
6 54 73 0
6 55 0
7 8 50 56 0
7 12 55 0
7 20 0
7 26 0
7 26 50 0
7 26 74 0
7 31 0
7 31 55 0
7 31 74 0
7 37 0
7 49 0
7 50 0
7 50 55 0
7 50 74 0
7 55 0
7 55 74 0
7 56 0
8 9 51 57 0
8 13 56 0
8 21 0
8 27 0
8 27 51 0
8 27 75 0
8 32 0
8 32 56 0
8 32 75 0
8 38 0
8 50 0
8 51 0
8 51 56 0
8 51 75 0
8 56 0
8 56 75 0
8 57 0
9 10 52 58 0
9 14 57 0
9 22 0
9 28 0
9 28 52 0
9 28 76 0
9 33 0
9 33 57 0
9 33 76 0
9 39 0
9 51 0
9 52 0
9 52 57 0
9 52 76 0
9 57 0
9 57 76 0
9 58 0
10 11 53 59 0
10 15 58 0
10 23 0
10 29 0
10 29 53 0
10 29 77 0
10 34 0
10 34 58 0
10 34 77 0
10 40 0
10 52 0
10 53 0
10 53 58 0
10 53 77 0
10 58 0
10 58 77 0
10 59 0
11 12 54 60 0
11 16 59 0
11 24 0
11 30 0
11 30 54 0
11 30 78 0
11 35 0
11 35 59 0
11 35 78 0
11 41 0
11 53 0
11 54 0
11 54 59 0
11 54 78 0
11 59 0
11 59 78 0
11 60 0
12 13 55 61 0
12 17 60 0
12 25 0
12 31 0
12 31 55 0
12 31 79 0
12 36 0
12 36 60 0
12 36 79 0
12 42 0
12 54 0
12 55 0
12 55 60 0
12 55 79 0
12 60 0
12 60 79 0
12 61 0
13 14 56 62 0
13 18 61 0
13 26 0
13 32 0
13 32 56 0
13 32 80 0
13 37 0
13 37 61 0
13 37 80 0
13 43 0
13 55 0
13 56 0
13 56 61 0
13 56 80 0
13 61 0
13 61 80 0
13 62 0
14 15 57 63 0
14 19 62 0
14 27 0
14 33 0
14 33 57 0
14 33 81 0
14 38 0
14 38 62 0
14 38 81 0
14 56 0
14 57 0
14 57 62 0
14 57 81 0
14 62 0
14 62 81 0
14 63 0
15 16 58 64 0
15 20 63 0
15 28 0
15 34 0
15 34 58 0
15 34 82 0
15 39 0
15 39 63 0
15 39 82 0
15 57 0
15 58 0
15 58 63 0
15 58 82 0
15 63 0
15 63 82 0
15 64 0
16 17 59 65 0
16 21 64 0
16 29 0
16 35 0
16 35 59 0
16 35 83 0
16 40 0
16 40 64 0
16 40 83 0
16 58 0
16 59 0
16 59 64 0
16 59 83 0
16 64 0
16 64 83 0
16 65 0
17 18 60 66 0
17 22 65 0
17 30 0
17 36 0
17 36 60 0
17 36 84 0
17 41 0
17 41 65 0
17 41 84 0
17 59 0
17 60 0
17 60 65 0
17 60 84 0
17 65 0
17 65 84 0
17 66 0
18 19 61 67 0
18 23 66 0
18 31 0
18 37 0
18 37 61 0
18 37 85 0
18 42 0
18 42 66 0
18 42 85 0
18 60 0
18 61 0
18 61 66 0
18 61 85 0
18 66 0
18 66 85 0
18 67 0
19 20 62 68 0
19 24 67 0
19 32 0
19 38 0
19 38 62 0
19 38 86 0
19 43 0
19 43 67 0
19 43 86 0
19 61 0
19 62 0
19 62 67 0
19 62 86 0
19 67 0
19 67 86 0
19 68 0
20 21 63 69 0
20 25 68 0
20 33 0
20 39 0
20 39 44 0
20 39 63 0
20 44 63 0
20 44 68 0
20 62 0
20 63 0
20 63 68 0
20 68 0
20 69 0
21 22 64 70 0
21 26 69 0
21 34 0
21 40 0
21 40 45 0
21 40 64 0
21 45 64 0
21 45 69 0
21 63 0
21 64 0
21 64 69 0
21 69 0
21 70 0
22 23 65 71 0
22 27 70 0
22 35 0
22 41 0
22 41 46 0
22 41 65 0
22 46 65 0
22 46 70 0
22 64 0
22 65 0
22 65 70 0
22 70 0
22 71 0
23 24 66 72 0
23 28 71 0
23 36 0
23 42 0
23 42 47 0
23 42 66 0
23 47 66 0
23 47 71 0
23 65 0
23 66 0
23 66 71 0
23 71 0
23 72 0
24 25 67 73 0
24 29 72 0
24 37 0
24 43 0
24 43 48 0
24 43 67 0
24 48 67 0
24 48 72 0
24 66 0
24 67 0
24 67 72 0
24 72 0
24 73 0
25 26 68 74 0
25 30 73 0
25 38 0
25 49 68 0
25 49 73 0
25 67 0
25 68 0
25 68 73 0
25 73 0
25 74 0
26 27 69 75 0
26 31 74 0
26 39 0
26 50 69 0
26 50 74 0
26 68 0
26 69 0
26 69 74 0
26 74 0
26 75 0
27 28 70 76 0
27 32 75 0
27 40 0
27 51 70 0
27 51 75 0
27 69 0
27 70 0
27 70 75 0
27 75 0
27 76 0
28 29 71 77 0
28 33 76 0
28 41 0
28 52 71 0
28 52 76 0
28 70 0
28 71 0
28 71 76 0
28 76 0
28 77 0
29 30 72 78 0
29 34 77 0
29 42 0
29 53 72 0
29 53 77 0
29 71 0
29 72 0
29 72 77 0
29 77 0
29 78 0
30 31 73 79 0
30 35 78 0
30 43 0
30 54 73 0
30 54 78 0
30 72 0
30 73 0
30 73 78 0
30 78 0
30 79 0
31 32 74 80 0
31 36 79 0
31 55 74 0
31 55 79 0
31 73 0
31 74 0
31 74 79 0
31 79 0
31 80 0
32 33 75 81 0
32 37 80 0
32 56 75 0
32 56 80 0
32 74 0
32 75 0
32 75 80 0
32 80 0
32 81 0
33 34 76 82 0
33 38 81 0
33 57 76 0
33 57 81 0
33 75 0
33 76 0
33 76 81 0
33 81 0
33 82 0
34 35 77 83 0
34 39 82 0
34 58 77 0
34 58 82 0
34 76 0
34 77 0
34 77 82 0
34 82 0
34 83 0
35 36 78 84 0
35 40 83 0
35 59 78 0
35 59 83 0
35 77 0
35 78 0
35 78 83 0
35 83 0
35 84 0
36 37 79 85 0
36 41 84 0
36 60 79 0
36 60 84 0
36 78 0
36 79 0
36 79 84 0
36 84 0
36 85 0
37 38 80 86 0
37 42 85 0
37 61 80 0
37 61 85 0
37 79 0
37 80 0
37 80 85 0
37 85 0
37 86 0
38 39 44 81 0
38 43 86 0
38 44 0
38 62 81 0
38 62 86 0
38 80 0
38 81 0
38 81 86 0
38 86 0
39 40 45 82 0
39 44 0
39 44 63 0
39 44 82 0
39 45 0
39 63 82 0
39 81 0
39 82 0
40 41 46 83 0
40 45 0
40 45 64 0
40 45 83 0
40 46 0
40 64 83 0
40 82 0
40 83 0
41 42 47 84 0
41 46 0
41 46 65 0
41 46 84 0
41 47 0
41 65 84 0
41 83 0
41 84 0
42 43 48 85 0
42 47 0
42 47 66 0
42 47 85 0
42 48 0
42 66 85 0
42 84 0
42 85 0
43 48 0
43 48 67 0
43 48 86 0
43 49 0
43 67 86 0
43 85 0
43 86 0
44 0
44 63 0
44 68 0
45 0
45 64 0
45 69 0
46 0
46 65 0
46 70 0
47 0
47 66 0
47 71 0
48 0
48 67 0
48 72 0
49 0
49 68 0
49 73 0
50 0
50 69 0
50 74 0
51 0
51 70 0
51 75 0
52 0
52 71 0
52 76 0
53 0
53 72 0
53 77 0
54 0
54 73 0
54 78 0
55 0
55 74 0
55 79 0
56 0
56 75 0
56 80 0
57 0
57 76 0
57 81 0
58 0
58 77 0
58 82 0
59 0
59 78 0
59 83 0
60 0
60 79 0
60 84 0
61 0
61 80 0
61 85 0
62 0
62 81 0
62 86 0
63 0
63 82 0
64 0
64 83 0
65 0
65 84 0
66 0
66 85 0
67 0
67 86 0
68 0
69 0
70 0
71 0
72 0
73 0
74 0
75 0
76 0
77 0
78 0
79 0
80 0
81 0
82 0
83 0
84 0
85 0
86 0
